NAME PortOpt_n10_m4_inst_2
ROWS
 N  OBJ
 E  budget  
 G  return  
 L  uncertain_risk
 L  fixed_risk
COLUMNS
    asset[0]  budget    1
    asset[0]  return    4.3747285942049832e+00
    asset[1]  budget    1
    asset[1]  return    4.0582113058731490e+00
    asset[2]  budget    1
    asset[2]  return    4.0803735641658596e+00
    asset[3]  budget    1
    asset[3]  return    2.4273167269479718e+00
    asset[4]  budget    1
    asset[4]  return    3.7071292266287523e+00
    asset[5]  budget    1
    asset[5]  return    1.1118018146585973e+00
    asset[6]  budget    1
    asset[6]  return    2.6867659631466174e+00
    asset[7]  budget    1
    asset[7]  return    1.6077171890268565e+00
    asset[8]  budget    1
    asset[8]  return    4.3850101800330590e+00
    asset[9]  budget    1
    asset[9]  return    1.1312557426773022e+00
    return_var  OBJ       -1
    return_var  return    -1
    uncertain_risk_var  OBJ       1
    uncertain_risk_var  uncertain_risk  -1
    fixed_risk_var  OBJ       1
    fixed_risk_var  fixed_risk  -1
RHS
    RHS1      budget    1
BOUNDS
QCMATRIX   uncertain_risk
    asset[0]  asset[0]  7.5940788703635076e-02
    asset[0]  asset[1]  2.1583102557645333e-02
    asset[1]  asset[0]  2.1583102557645333e-02
    asset[0]  asset[2]  5.8692888152539289e-03
    asset[2]  asset[0]  5.8692888152539289e-03
    asset[0]  asset[3]  4.1174598347607116e-02
    asset[3]  asset[0]  4.1174598347607116e-02
    asset[0]  asset[4]  -2.0663570042857026e-02
    asset[4]  asset[0]  -2.0663570042857026e-02
    asset[0]  asset[5]  2.3615501709693829e-02
    asset[5]  asset[0]  2.3615501709693829e-02
    asset[0]  asset[6]  -4.5487641986254199e-02
    asset[6]  asset[0]  -4.5487641986254199e-02
    asset[0]  asset[7]  -4.2091013307412085e-02
    asset[7]  asset[0]  -4.2091013307412085e-02
    asset[0]  asset[8]  -4.8251644598500919e-02
    asset[8]  asset[0]  -4.8251644598500919e-02
    asset[0]  asset[9]  -5.6459083767914031e-02
    asset[9]  asset[0]  -5.6459083767914031e-02
    asset[1]  asset[1]  1.3336435010785056e-02
    asset[1]  asset[2]  1.6923550319123314e-02
    asset[2]  asset[1]  1.6923550319123314e-02
    asset[1]  asset[3]  8.1223695700170864e-03
    asset[3]  asset[1]  8.1223695700170864e-03
    asset[1]  asset[4]  -1.0259720281407699e-02
    asset[4]  asset[1]  -1.0259720281407699e-02
    asset[1]  asset[5]  7.3863223995497759e-03
    asset[5]  asset[1]  7.3863223995497759e-03
    asset[1]  asset[6]  -2.7820670669458300e-02
    asset[6]  asset[1]  -2.7820670669458300e-02
    asset[1]  asset[7]  -2.1714128341813960e-03
    asset[7]  asset[1]  -2.1714128341813960e-03
    asset[1]  asset[8]  -1.0368735042728668e-02
    asset[8]  asset[1]  -1.0368735042728668e-02
    asset[1]  asset[9]  -2.5361886683979429e-03
    asset[9]  asset[1]  -2.5361886683979429e-03
    asset[2]  asset[2]  4.1062837167984798e-02
    asset[2]  asset[3]  -8.1158236483695537e-03
    asset[3]  asset[2]  -8.1158236483695537e-03
    asset[2]  asset[4]  -8.6153476533969812e-03
    asset[4]  asset[2]  -8.6153476533969812e-03
    asset[2]  asset[5]  -3.1223299027886820e-03
    asset[5]  asset[2]  -3.1223299027886820e-03
    asset[2]  asset[6]  -4.1593363418260511e-02
    asset[6]  asset[2]  -4.1593363418260511e-02
    asset[2]  asset[7]  2.4051320702544905e-02
    asset[7]  asset[2]  2.4051320702544905e-02
    asset[2]  asset[8]  -2.1587378726343809e-02
    asset[8]  asset[2]  -2.1587378726343809e-02
    asset[2]  asset[9]  2.1186497730110367e-02
    asset[9]  asset[2]  2.1186497730110367e-02
    asset[3]  asset[3]  2.5771719979633879e-02
    asset[3]  asset[4]  -1.0136577080798972e-02
    asset[4]  asset[3]  -1.0136577080798972e-02
    asset[3]  asset[5]  1.5223104905898009e-02
    asset[5]  asset[3]  1.5223104905898009e-02
    asset[3]  asset[6]  -1.4379840794303430e-02
    asset[6]  asset[3]  -1.4379840794303430e-02
    asset[3]  asset[7]  -3.0525856131621971e-02
    asset[7]  asset[3]  -3.0525856131621971e-02
    asset[3]  asset[8]  -1.6762082148869446e-02
    asset[8]  asset[3]  -1.6762082148869446e-02
    asset[3]  asset[9]  -3.5964346686974909e-02
    asset[9]  asset[3]  -3.5964346686974909e-02
    asset[4]  asset[4]  1.1325162125604419e-02
    asset[4]  asset[5]  -6.0145387523919611e-03
    asset[5]  asset[4]  -6.0145387523919611e-03
    asset[4]  asset[6]  2.0795595194443642e-02
    asset[6]  asset[4]  2.0795595194443642e-02
    asset[4]  asset[7]  4.6906706599610364e-03
    asset[7]  asset[4]  4.6906706599610364e-03
    asset[4]  asset[8]  7.0100190034261258e-03
    asset[8]  asset[4]  7.0100190034261258e-03
    asset[4]  asset[9]  6.5632933800973074e-03
    asset[9]  asset[4]  6.5632933800973074e-03
    asset[5]  asset[5]  1.5050930202649224e-02
    asset[5]  asset[6]  -9.3043471239343690e-03
    asset[6]  asset[5]  -9.3043471239343690e-03
    asset[5]  asset[7]  -1.9991277420725467e-02
    asset[7]  asset[5]  -1.9991277420725467e-02
    asset[5]  asset[8]  7.4194493622441763e-03
    asset[8]  asset[5]  7.4194493622441763e-03
    asset[5]  asset[9]  -1.3647225579914039e-02
    asset[9]  asset[5]  -1.3647225579914039e-02
    asset[6]  asset[6]  6.3723545362014619e-02
    asset[6]  asset[7]  -1.4319081734587677e-03
    asset[7]  asset[6]  -1.4319081734587677e-03
    asset[6]  asset[8]  4.2929972128307986e-02
    asset[8]  asset[6]  4.2929972128307986e-02
    asset[6]  asset[9]  8.4248370663479802e-03
    asset[9]  asset[6]  8.4248370663479802e-03
    asset[7]  asset[7]  4.4639246307261862e-02
    asset[7]  asset[8]  8.5799345293866309e-03
    asset[8]  asset[7]  8.5799345293866309e-03
    asset[7]  asset[9]  4.6941799437857576e-02
    asset[9]  asset[7]  4.6941799437857576e-02
    asset[8]  asset[8]  1.1035567953091893e-01
    asset[8]  asset[9]  5.1674300198335951e-02
    asset[9]  asset[8]  5.1674300198335951e-02
    asset[9]  asset[9]  6.8480482221124794e-02
QCMATRIX   fixed_risk
    asset[0]  asset[0]  7.3456294306906205e-03
    asset[1]  asset[1]  1.3161941639110134e-03
    asset[2]  asset[2]  4.2557657659268644e-03
    asset[3]  asset[3]  2.6991761589759654e-03
    asset[4]  asset[4]  1.0947864138848094e-03
    asset[5]  asset[5]  1.5639906579771581e-03
    asset[6]  asset[6]  6.9967582515101049e-03
    asset[7]  asset[7]  4.5165800319455556e-03
    asset[8]  asset[8]  1.1671553764847976e-02
    asset[9]  asset[9]  6.5304237232530291e-03
ENDATA
